WARNING: for repeatability, setting FPU to use double precision
============================[ Problem Statistics ]=============================
|                                                                             |
|  Number of symmetries:          39                                          |
|  Number of invertingSyms:        0                                          |
|  Number of variables:           420                                         |
|  Number of clauses:            4221                                         |
|  Parse time:                   0.00 s                                       |
|                                                                             |
============================[ Search Statistics ]==============================
| Conflicts |          ORIGINAL         |          LEARNT          | Progress |
|           |    Vars  Clauses Literals |    Limit  Clauses Lit/Cl |          |
===============================================================================
|       100 |     420     4221     8820 |     1547      101    148 |  0.001 % |
|       250 |     420     4221     8820 |     1702      280    105 |  0.001 % |
|       475 |     420     4221     8820 |     1872      546    107 |  0.001 % |
|       812 |     420     4221     8820 |     2059     1003     96 |  0.001 % |
|      1318 |     420     4221     8820 |     2265     1756    108 |  0.001 % |
|      2077 |     420     4221     8820 |     2492     1536    100 |  0.001 % |
|      3216 |     420     4221     8820 |     2741     2805    102 |  0.001 % |
|      4924 |     420     4221     8820 |     3016     2125    111 |  0.001 % |
|      7486 |     420     4221     8820 |     3317     2132    104 |  0.001 % |
|     11330 |     420     4221     8820 |     3649     3343    108 |  0.001 % |
|     17096 |     420     4221     8820 |     4014     2541    151 |  0.001 % |
|     25745 |     420     4221     8820 |     4415     2549    167 |  0.001 % |
|     38719 |     420     4221     8820 |     4857     2624    127 |  0.001 % |
|     58180 |     420     4221     8820 |     5343     2971    167 |  0.001 % |
|     87372 |     420     4221     8820 |     5877     5562    135 |  0.001 % |
|    131161 |     420     4221     8820 |     6465     3543    178 |  0.001 % |
|    196845 |     420     4221     8820 |     7111     3719    170 |  0.001 % |
|    295371 |     420     4221     8820 |     7822     6896    176 |  0.001 % |
|    443160 |     420     4221     8820 |     8605     6927    147 |  0.001 % |
|    664843 |     420     4221     8820 |     9465     5089    170 |  0.001 % |
|    997368 |     420     4221     8820 |    10412     6576    138 |  0.001 % |
|   1496156 |     420     4221     8820 |    11453     6580    176 |  0.001 % |
|   2244338 |     420     4221     8820 |    12598     6957    180 |  0.001 % |
|   3366612 |     420     4221     8820 |    13858     9613    163 |  0.001 % |
|   5050023 |     420     4221     8820 |    15244     9672    154 |  0.001 % |
|   7575139 |     420     4221     8820 |    16768    11219    177 |  0.001 % |
|  11362814 |     420     4221     8820 |    18445    15668    203 |  0.001 % |
|  17044326 |     420     4221     8820 |    20290    12245    156 |  0.012 % |
|  25566595 |     420     4221     8820 |    22319    12334    178 |  0.001 % |
|  38349998 |     420     4221     8820 |    24551    13503    153 |  0.001 % |
===============================================================================
restarts              : 57105
conflicts             : 40533579       (7973 /sec)
symconflicts          : 2214330        (436 /sec)
decisions             : 67701947       (0.00 % random) (13317 /sec)
propagations          : 781366488      (153696 /sec)
sympropagations       : 7598088        (1495 /sec)
conflict literals     : 7038162306     (7.30 % deleted)
Memory used           : 146.00 MB
CPU time              : 5083.85 s

INDETERMINATE
